files/upTests/_zothers/tupley32-7-1-0m/0001.eprime.solution
language ESSENCE' 1.0
$ minion Nodes: 1
$ minion TotalTime: 0.000882
$ Savile Row TotalTime: 0.358
letting pain_tuple3_tuple1_tuple2 be [11, 11]
letting pain_tuple1 be [2, 2]
letting pain_tuple3_tuple1_tuple1 be [10, 10]
letting pain_tuple3_tuple2 be [12, 12]
letting pain_tuple2_tuple1 be [5, 5]
letting pain_tuple2_tuple2 be [6, 6]
